Route #1: 23
Route #2: 9
Route #3: 38 26 13 43 14 6 45
Route #4: 21 41 20 27 1 40 34 31 29
Route #5: 17 28
Route #6: 36 5 32 3 22 39 7 10 11
Route #7: 19 8 33 42 16 24 15
Route #8: 4 30 2 37
Route #9: 12 35 25 44 18
cost: 1012.9521528575688
